#
# 174_na M06-D3/Def2-TZVPPD
#
! m06 d3zero def2-tzvppd def2/jk grid4 nofinalgrid

*xyz 0 1
Na         0.00000        0.00000        0.94863
H          0.00000        0.00000       -0.94863
*

%maxcore 5000

%pal
nprocs = 24
end

