#
# 177_si M06-D3/Def2-TZVPPD
#
! m06 d3zero def2-tzvppd def2/jk grid4 nofinalgrid

*xyz 0 1
Si         0.00000        0.00000        0.00000
H         -0.86552        0.86552        0.86552
H          0.86552       -0.86552        0.86552
H         -0.86552       -0.86552       -0.86552
H          0.86552        0.86552       -0.86552
*

%maxcore 5000

%pal
nprocs = 24
end

