#
# 178_p M06-D3/Def2-TZVPPD
#
! m06 d3zero def2-tzvppd def2/jk grid4 nofinalgrid

*xyz 0 1
P          0.00000        0.00000        0.95949
P          0.00000        0.00000       -0.95949
*

%maxcore 5000

%pal
nprocs = 24
end

