#
# 104 ri-B2PLYP-D3BJ/Def2-TZVPPD
#
! rijk ri-b2plyp d3bj def2-tzvppd def2/jk def2-tzvppd/c grid4 nofinalgrid

*xyz 0 2
C          0.18239        0.81792       -0.17289
H         -2.32613        0.04031        1.01174
H          2.24798        0.73105       -0.01871
C          1.34005        0.10819       -0.12066
H          0.11379        1.91914       -0.21133
Si        -1.43329       -0.14152       -0.20061
H         -1.02937       -1.64029       -0.13873
Li         0.90457       -1.83481       -0.14881
*

%maxcore 5000

%pal
nprocs = 24
end

