#
# 167_li ri-B2PLYP-D3BJ/Def2-TZVPPD
#
! rijk ri-b2plyp d3bj def2-tzvppd def2/jk def2-tzvppd/c grid4 nofinalgrid

*xyz 0 1
Li         0.00000        0.00000        0.80730
H          0.00000        0.00000       -0.80730
*

%maxcore 5000

%pal
nprocs = 24
end

