#
# 177_si ri-B2PLYP-D3BJ/Def2-TZVPPD
#
! rijk ri-b2plyp d3bj def2-tzvppd def2/jk def2-tzvppd/c grid4 nofinalgrid

*xyz 0 1
Si         0.00000        0.00000        0.00000
H         -0.86552        0.86552        0.86552
H          0.86552       -0.86552        0.86552
H         -0.86552       -0.86552       -0.86552
H          0.86552        0.86552       -0.86552
*

%maxcore 5000

%pal
nprocs = 24
end

