#
# 050 TPSSh-D3BJ/Def2-TZVPPD
#
! tpssh d3bj def2-tzvppd def2/jk grid4 nofinalgrid

*xyz 0 1
H          0.20940       -0.52586       -2.49943
Cl        -0.00687       -1.57667        0.66924
H         -0.20240       -1.10325       -2.75186
H         -1.52841        1.31136        0.17964
H          1.18008        1.27520       -0.42375
H          0.01798       -1.62546        1.96923
Al        -0.00655        1.11839        0.64244
H          0.33679        1.12629        2.21448
*

%maxcore 5000

%pal
nprocs = 24
end

