#
# 123 TPSSh-D3BJ/Def2-TZVPPD
#
! tpssh d3bj def2-tzvppd def2/jk grid4 nofinalgrid

*xyz 0 2
H         -0.05566       -1.00378        1.35004
H         -0.85108        0.57288        1.07820
C          0.00090       -0.05557        0.78344
H         -0.84105       -0.66759       -1.01558
H          0.91403        0.47335        1.08996
H          0.01842        1.61333       -1.60506
H          0.81267       -0.72579       -1.00914
N          0.00176       -0.20682       -0.67186
*

%maxcore 5000

%pal
nprocs = 24
end

