#
# 168_be wB97X-V/Def2-TZVPPD
#
! wb97x-v def2-tzvppd def2/jk grid4 nofinalgrid

*xyz 0 1
Be         0.00000        0.00000        0.00000
H          0.00000        0.00000       -1.34402
H          0.00000        0.00000        1.34402
*

%maxcore 5000

%pal
nprocs = 24
end

