#
# 169_b wB97X-V/Def2-TZVPPD
#
! wb97x-v def2-tzvppd def2/jk grid4 nofinalgrid

*xyz 0 1
B          0.00000        0.00000        0.00000
H          0.60006        1.03933        0.00000
H          0.60006       -1.03933        0.00000
H         -1.20012        0.00000        0.00000
*

%maxcore 5000

%pal
nprocs = 24
end

