#
# 166_h TPSS-D3BJ/Def2-TZVPPD
#
! tpss d3bj def2-tzvppd def2/j grid4 nofinalgrid

*xyz 0 1
H          0.00000        0.00000        0.37586
H          0.00000        0.00000       -0.37586
*

%maxcore 5000

%pal
nprocs = 24
end

