#
# 174_na TPSS-D3BJ/Def2-TZVPPD
#
! tpss d3bj def2-tzvppd def2/j grid4 nofinalgrid

*xyz 0 1
Na         0.00000        0.00000        0.94863
H          0.00000        0.00000       -0.94863
*

%maxcore 5000

%pal
nprocs = 24
end

