#
# 179_s TPSS-D3BJ/Def2-TZVPPD
#
! tpss d3bj def2-tzvppd def2/j grid4 nofinalgrid

*xyz 0 3
S          0.00000        0.00000        0.96937
S          0.00000        0.00000       -0.96937
*

%maxcore 5000

%pal
nprocs = 24
end

