#
# 138 ri-DSD-BLYP/2013-D3BJ/Def2-TZVPPD
#
! rijk ri-dsd-blyp/2013 d3bj def2-tzvppd def2/jk def2-tzvppd/c grid4 nofinalgrid

*xyz 0 1
H          0.64849       -1.47778       -0.13722
H         -0.62659       -0.18590       -3.09890
H         -0.40094       -0.71477       -2.61128
H          0.74472        0.82794        2.20080
H          0.41684       -1.04544        0.48242
H         -0.86873        0.85706        2.13389
Na         0.12711        1.09566       -0.53418
N         -0.04090        0.64323        1.56447
*

%maxcore 5000

%pal
nprocs = 24
end

