#
# 174_na ri-DSD-BLYP/2013-D3BJ/Def2-TZVPPD
#
! rijk ri-dsd-blyp/2013 d3bj def2-tzvppd def2/jk def2-tzvppd/c grid4 nofinalgrid

*xyz 0 1
Na         0.00000        0.00000        0.94863
H          0.00000        0.00000       -0.94863
*

%maxcore 5000

%pal
nprocs = 24
end

