#
# 176_al wB97M-V/Def2-TZVPPD
#
! wb97m-v def2-tzvppd def2/jk grid4 nofinalgrid

*xyz 0 1
Al         0.00000        0.00000        0.00000
H          0.80046       -1.38644        0.00000
H          0.80046        1.38644        0.00000
H         -1.60093        0.00000        0.00000
*

%maxcore 5000

%pal
nprocs = 24
end

