#
# 178_p wB97M-V/Def2-TZVPPD
#
! wb97m-v def2-tzvppd def2/jk grid4 nofinalgrid

*xyz 0 1
P          0.00000        0.00000        0.95949
P          0.00000        0.00000       -0.95949
*

%maxcore 5000

%pal
nprocs = 24
end

