#
# 179_s wB97M-V/Def2-TZVPPD
#
! wb97m-v def2-tzvppd def2/jk grid4 nofinalgrid

*xyz 0 3
S          0.00000        0.00000        0.96937
S          0.00000        0.00000       -0.96937
*

%maxcore 5000

%pal
nprocs = 24
end

